NAME : morphed18-5-17
COMMENT : Generated using the function morphInstances from the R-package netgen (Bossek,2015) - Number of clusters: 5 Alpha: 0.5
TYPE : TSP
DIMENSION : 18
EDGE_WEIGHT_TYPE : EUC_2D
NODE_COORD_SECTION
1 15.2171530088 65.1505859353
2 92.7535697154 61.3844986151
3 41.7555335005 68.3001155929
4 80.4452888299 73.2161175263
5 37.8760394059 58.4494453812
6 45.6815359068 60.2170127437
7 16.0863359889 81.6131494158
8 28.4762814568 20.0600940436
9 63.0905441488 42.8216718311
10 19.8956240899 58.7822368247
11 38.3984568659 70.3117065399
12 15.2754267655 31.1895885024
13 72.9614083878 29.7562213704
14 74.3132744644 4.8961048374
15 92.3785881875 82.4924044532
16 79.5552968157 24.9033882672
17 55.7366156939 44.6710855722
18 28.5742790029 32.0387139996
EOF
